\ENCODING=ISO-8859-1
\Problem name: IloCplex

Minimize
 obj1: x1 + 36.800003 x2 + 1
Subject To
 c1:  x1 + 5 x2 <= 99999
 c2:  x1 + 9.6 x2 >= 15.1399996
 c3:  x1 + 14.6 x2 <= 99999
 c4:  x1 + 12.6 x2 >= 15.3399996
 c5:  x1 + 17.6 x2 <= 99999
 c6:  x1 + 14.487237 x2 >= 15.4658154
 c7:  x1 + 19.487237 x2 <= 99999
 c8:  x1 + 17.312766 x2 >= 15.654184
 c9:  x1 + 22.312766 x2 <= 99999
 c10: x1 + 19.200003 x2 >= 15.7799998
 c11: x1 + 24.200003 x2 <= 99999
 c12: x1 + 22.200003 x2 >= 15.9799998
 c13: x1 + 27.200003 x2 <= 99999
 c14: x1 + 31.800003 x2 >= 16.6199998
 c15: x1 + 36.800003 x2 <= 99999
Bounds
 14.4999996 <= x1 <= 100000
 0.0666666666666667 <= x2 <= 0.333333333333333
End
